decision_x1=[0,7];
decision_x2=[0,7];
decision_x3=[0,7];
decision_x4=[0,7];
decision_x5=[0,7];
decision_x6=[0,7];
decision_x7=[0,7];
decision_x8=[0,7];
decision_x9=[0,7];
decision_x10=[0,7];
decision_x11=[0,7];
decision_x12=[0,7];
decision_x13=[0,7];
decision_x14=[0,7];
decision_x15=[0,7];
decision_x16=[0,7];
random_y1=[0,7];
random_y2=[0,7];
random_y3=[0,7];
random_y4=[0,7];
random_y5=[0,7];
random_y6=[0,7];
random_y7=[0,7];
constraint_x2_x1=[
0,0,2.1|
0,1,3.2|
0,2,4.8|
0,3,3.6|
0,4,6.4|
0,5,8.2|
0,6,9.1|
0,7,6.9|
1,0,4.8|
1,1,0.45|
1,2,9.6|
1,3,1.5|
1,4,0.87|
1,5,5|
1,6,5.9|
1,7,1.4|
2,0,3.7|
2,1,4|
2,2,4.9|
2,3,0.79|
2,4,1.2|
2,5,6.7|
2,6,5.8|
2,7,4.9|
3,0,4.8|
3,1,6.4|
3,2,3.9|
3,3,9.1|
3,4,3.9|
3,5,9|
3,6,3.3|
3,7,7.8|
4,0,0.35|
4,1,5.3|
4,2,9.4|
4,3,7.1|
4,4,3.4|
4,5,7.7|
4,6,1.5|
4,7,6.1|
5,0,5.6|
5,1,2.9|
5,2,3.2|
5,3,6.4|
5,4,8.8|
5,5,7.2|
5,6,7.6|
5,7,9.1|
6,0,9.2|
6,1,5|
6,2,7.9|
6,3,5.9|
6,4,0.01|
6,5,4.1|
6,6,9.3|
6,7,1.5|
7,0,6.8|
7,1,6.1|
7,2,8.1|
7,3,7.1|
7,4,0.43|
7,5,9.4|
7,6,5.6|
7,7,7.5|
];
constraint_x3_x2=[
0,0,2.9|
0,1,8.2|
0,2,0.65|
0,3,6.5|
0,4,9.8|
0,5,8.9|
0,6,8.3|
0,7,0.93|
1,0,9.4|
1,1,5|
1,2,9.2|
1,3,5.7|
1,4,8.5|
1,5,7.6|
1,6,3.9|
1,7,9.4|
2,0,0.49|
2,1,2.1|
2,2,7.7|
2,3,1.8|
2,4,4.1|
2,5,2.7|
2,6,5.4|
2,7,9.6|
3,0,1.8|
3,1,7.1|
3,2,0.19|
3,3,6.3|
3,4,4.9|
3,5,0.025|
3,6,7.3|
3,7,7.6|
4,0,1.6|
4,1,4.9|
4,2,0.48|
4,3,2.4|
4,4,7.1|
4,5,0.73|
4,6,2.1|
4,7,7.3|
5,0,2.8|
5,1,4.7|
5,2,1.1|
5,3,6.9|
5,4,9.7|
5,5,0.7|
5,6,7.8|
5,7,6.7|
6,0,6.6|
6,1,6.8|
6,2,3.8|
6,3,4|
6,4,9.5|
6,5,8.4|
6,6,7.7|
6,7,3.3|
7,0,2.7|
7,1,6|
7,2,2.7|
7,3,6|
7,4,3.3|
7,5,4.3|
7,6,7.7|
7,7,9.5|
];
constraint_x4_x3=[
0,0,9|
0,1,5.3|
0,2,8|
0,3,1|
0,4,0.46|
0,5,4.3|
0,6,3.2|
0,7,9.5|
1,0,4.6|
1,1,2.3|
1,2,9.6|
1,3,8.6|
1,4,3.1|
1,5,2.7|
1,6,0.73|
1,7,5.4|
2,0,5.1|
2,1,3.1|
2,2,1.5|
2,3,9.3|
2,4,9|
2,5,2.6|
2,6,8.6|
2,7,1.3|
3,0,5.8|
3,1,1.5|
3,2,2.8|
3,3,8.9|
3,4,9.6|
3,5,7.1|
3,6,5|
3,7,7.6|
4,0,7.5|
4,1,2.7|
4,2,3.8|
4,3,7.2|
4,4,7|
4,5,6|
4,6,8.4|
4,7,7.1|
5,0,1.8|
5,1,7.7|
5,2,3.6|
5,3,0.58|
5,4,7.8|
5,5,4.9|
5,6,0.2|
5,7,3.7|
6,0,1.1|
6,1,3.1|
6,2,4.9|
6,3,3|
6,4,5.6|
6,5,5.1|
6,6,0.24|
6,7,1.5|
7,0,1.9|
7,1,9.1|
7,2,9.1|
7,3,6.9|
7,4,4.4|
7,5,9|
7,6,9.9|
7,7,4.4|
];
constraint_x5_x1=[
0,0,7.8|
0,1,0.47|
0,2,4.2|
0,3,2.2|
0,4,5.7|
0,5,1.3|
0,6,9.7|
0,7,4.9|
1,0,3.5|
1,1,4|
1,2,4.1|
1,3,4.3|
1,4,1.8|
1,5,8.9|
1,6,1|
1,7,2.5|
2,0,4.1|
2,1,9|
2,2,4.6|
2,3,7.6|
2,4,7.3|
2,5,8.9|
2,6,6.3|
2,7,6.2|
3,0,3.8|
3,1,4.8|
3,2,6.3|
3,3,4.7|
3,4,8.1|
3,5,10|
3,6,9|
3,7,6.9|
4,0,9|
4,1,6.5|
4,2,2.8|
4,3,1.7|
4,4,2.1|
4,5,6.4|
4,6,5.3|
4,7,6.5|
5,0,2.1|
5,1,7.2|
5,2,0.89|
5,3,2.6|
5,4,3.2|
5,5,3.5|
5,6,8.3|
5,7,7.7|
6,0,3.8|
6,1,3.9|
6,2,4.3|
6,3,6|
6,4,4.7|
6,5,7.4|
6,6,8|
6,7,1.9|
7,0,9.9|
7,1,1.4|
7,2,4.7|
7,3,1.1|
7,4,6.4|
7,5,0.89|
7,6,1.5|
7,7,2.1|
];
constraint_x6_x2=[
0,0,1.5|
0,1,9.4|
0,2,2.8|
0,3,4.5|
0,4,0.12|
0,5,1|
0,6,3.7|
0,7,3.3|
1,0,3.9|
1,1,3.1|
1,2,4|
1,3,3.7|
1,4,4.8|
1,5,7.7|
1,6,8.5|
1,7,1.3|
2,0,0.53|
2,1,6.6|
2,2,9|
2,3,5.6|
2,4,5.7|
2,5,2.6|
2,6,5.8|
2,7,6.1|
3,0,3.3|
3,1,0.14|
3,2,1.6|
3,3,8.9|
3,4,6.5|
3,5,4.4|
3,6,0.19|
3,7,2.6|
4,0,9.4|
4,1,2.8|
4,2,2.6|
4,3,3|
4,4,7.8|
4,5,10|
4,6,6.7|
4,7,3.3|
5,0,3.6|
5,1,5.5|
5,2,4|
5,3,3.5|
5,4,2.3|
5,5,6.4|
5,6,7.1|
5,7,4.9|
6,0,9.3|
6,1,2.2|
6,2,2.2|
6,3,2.8|
6,4,2.5|
6,5,6.3|
6,6,5.8|
6,7,8.3|
7,0,9.7|
7,1,9.5|
7,2,4.1|
7,3,7.6|
7,4,1.4|
7,5,9.3|
7,6,8.5|
7,7,6.7|
];
constraint_x7_x3=[
0,0,7.5|
0,1,6.8|
0,2,5.2|
0,3,8.4|
0,4,1.9|
0,5,7.1|
0,6,7.4|
0,7,5.3|
1,0,8.5|
1,1,4.2|
1,2,2.2|
1,3,2.5|
1,4,8.8|
1,5,1.5|
1,6,1.3|
1,7,2.1|
2,0,0.16|
2,1,4.1|
2,2,1.1|
2,3,1.5|
2,4,1|
2,5,0.87|
2,6,9.6|
2,7,5.6|
3,0,5.1|
3,1,8.8|
3,2,6.4|
3,3,9.5|
3,4,8.8|
3,5,9.7|
3,6,9|
3,7,7.2|
4,0,5.7|
4,1,6.7|
4,2,1|
4,3,2.9|
4,4,4.3|
4,5,7.8|
4,6,1.6|
4,7,9.1|
5,0,0.9|
5,1,9.7|
5,2,6.1|
5,3,9.7|
5,4,8.7|
5,5,7.2|
5,6,3.2|
5,7,5.8|
6,0,0.41|
6,1,5.2|
6,2,6.2|
6,3,6.8|
6,4,7.1|
6,5,9.1|
6,6,4.5|
6,7,3.9|
7,0,6.4|
7,1,9.2|
7,2,9.9|
7,3,7.1|
7,4,9.6|
7,5,7|
7,6,7.2|
7,7,3|
];
constraint_x8_x4=[
0,0,1.8|
0,1,4.7|
0,2,3.4|
0,3,6.7|
0,4,2.2|
0,5,5.5|
0,6,9.3|
0,7,9.4|
1,0,7.7|
1,1,3.3|
1,2,6.8|
1,3,7.2|
1,4,4.5|
1,5,0.66|
1,6,0.47|
1,7,1.8|
2,0,3.4|
2,1,9.9|
2,2,1.2|
2,3,8.3|
2,4,7.5|
2,5,7.5|
2,6,4|
2,7,7.4|
3,0,6|
3,1,9.1|
3,2,0.58|
3,3,2.7|
3,4,6.3|
3,5,4.7|
3,6,5.4|
3,7,1.3|
4,0,2.1|
4,1,4|
4,2,10|
4,3,2|
4,4,6.3|
4,5,4.6|
4,6,8.2|
4,7,9.5|
5,0,4.3|
5,1,6.9|
5,2,7.6|
5,3,5.9|
5,4,1.5|
5,5,7.5|
5,6,2.6|
5,7,8.7|
6,0,7.8|
6,1,6.3|
6,2,7.7|
6,3,5.4|
6,4,2.1|
6,5,1.9|
6,6,5.6|
6,7,5.9|
7,0,2.4|
7,1,4.4|
7,2,7.7|
7,3,8.5|
7,4,8.7|
7,5,1.6|
7,6,8.6|
7,7,0.7|
];
constraint_x9_x5=[
0,0,8.8|
0,1,3.4|
0,2,5.7|
0,3,0.3|
0,4,1.6|
0,5,0.12|
0,6,1.4|
0,7,0.16|
1,0,9.7|
1,1,5.2|
1,2,4.4|
1,3,5.5|
1,4,2.5|
1,5,4.3|
1,6,9.3|
1,7,6.3|
2,0,3.8|
2,1,8.9|
2,2,3.9|
2,3,5.5|
2,4,3.8|
2,5,3.9|
2,6,1.4|
2,7,4.7|
3,0,4|
3,1,5.5|
3,2,2.3|
3,3,7.1|
3,4,0.15|
3,5,6.5|
3,6,4.9|
3,7,1.1|
4,0,7.6|
4,1,9.9|
4,2,4.3|
4,3,2.9|
4,4,2.8|
4,5,6.5|
4,6,4.6|
4,7,3.6|
5,0,1.8|
5,1,9.2|
5,2,7.9|
5,3,0.26|
5,4,6.3|
5,5,2.3|
5,6,6.1|
5,7,0.35|
6,0,9.2|
6,1,2.9|
6,2,0.57|
6,3,9.3|
6,4,8.8|
6,5,5.4|
6,6,3.5|
6,7,7.8|
7,0,6.3|
7,1,6.2|
7,2,3.4|
7,3,9.6|
7,4,6.7|
7,5,8.4|
7,6,0.048|
7,7,6.9|
];
constraint_x10_x6=[
0,0,6.6|
0,1,5|
0,2,1.7|
0,3,5|
0,4,8.3|
0,5,1.3|
0,6,9.4|
0,7,2.2|
1,0,2.5|
1,1,0.37|
1,2,4.7|
1,3,7.5|
1,4,3.6|
1,5,5.7|
1,6,5.1|
1,7,3.6|
2,0,8.8|
2,1,2.2|
2,2,3.4|
2,3,9.1|
2,4,0.97|
2,5,3.2|
2,6,2.9|
2,7,2|
3,0,6.8|
3,1,7|
3,2,0.15|
3,3,6.7|
3,4,7.4|
3,5,9.8|
3,6,6.7|
3,7,8|
4,0,2.9|
4,1,9.4|
4,2,9.3|
4,3,8.6|
4,4,2.8|
4,5,4.8|
4,6,4.9|
4,7,4|
5,0,8.7|
5,1,2.8|
5,2,1.3|
5,3,0.7|
5,4,6.6|
5,5,0.022|
5,6,1.5|
5,7,8.7|
6,0,2.9|
6,1,3.8|
6,2,4.8|
6,3,5.3|
6,4,7.4|
6,5,1.8|
6,6,8.6|
6,7,8|
7,0,9|
7,1,6.7|
7,2,1.1|
7,3,4.9|
7,4,5.3|
7,5,1.6|
7,6,9.9|
7,7,1.2|
];
constraint_x11_x7=[
0,0,7.3|
0,1,9.4|
0,2,6|
0,3,8.1|
0,4,3.3|
0,5,9.2|
0,6,4.5|
0,7,9.8|
1,0,2.8|
1,1,8.7|
1,2,0.63|
1,3,8.5|
1,4,4.8|
1,5,9.1|
1,6,8|
1,7,2.5|
2,0,8.2|
2,1,8.6|
2,2,2|
2,3,9.9|
2,4,3.5|
2,5,7.8|
2,6,5.1|
2,7,1.4|
3,0,6.9|
3,1,6.8|
3,2,5|
3,3,3.4|
3,4,2.8|
3,5,5.9|
3,6,0.27|
3,7,3.6|
4,0,2.6|
4,1,5.5|
4,2,6.6|
4,3,4|
4,4,7.8|
4,5,3.2|
4,6,5.3|
4,7,8.1|
5,0,1.2|
5,1,3.4|
5,2,8.5|
5,3,6|
5,4,3.8|
5,5,3.5|
5,6,9.1|
5,7,8.6|
6,0,6.9|
6,1,2.4|
6,2,4.8|
6,3,8.9|
6,4,2.3|
6,5,7.9|
6,6,8.6|
6,7,5|
7,0,8.6|
7,1,4.3|
7,2,1.9|
7,3,8.6|
7,4,4.3|
7,5,9.7|
7,6,8.7|
7,7,4|
];
constraint_x12_x8=[
0,0,0.98|
0,1,3.2|
0,2,5.7|
0,3,5.4|
0,4,1.4|
0,5,7.5|
0,6,2.9|
0,7,1.6|
1,0,9.3|
1,1,8.2|
1,2,8.1|
1,3,1.5|
1,4,8.3|
1,5,6|
1,6,8.3|
1,7,3.6|
2,0,0.44|
2,1,5.8|
2,2,9.3|
2,3,6.5|
2,4,0.3|
2,5,6.9|
2,6,6.7|
2,7,5.3|
3,0,7.2|
3,1,8|
3,2,6.8|
3,3,7.4|
3,4,2.2|
3,5,7.4|
3,6,9.1|
3,7,9.8|
4,0,2.4|
4,1,9.8|
4,2,9.3|
4,3,8.6|
4,4,2.5|
4,5,0.12|
4,6,7.3|
4,7,4.6|
5,0,6.4|
5,1,3.4|
5,2,0.98|
5,3,8.6|
5,4,0.58|
5,5,4.1|
5,6,0.14|
5,7,6.3|
6,0,7.6|
6,1,9.3|
6,2,4.4|
6,3,2.9|
6,4,6|
6,5,6.6|
6,6,4.7|
6,7,4.5|
7,0,2.4|
7,1,1.6|
7,2,9.5|
7,3,9.4|
7,4,6.3|
7,5,6.6|
7,6,3.6|
7,7,2.2|
];
constraint_x13_x9=[
0,0,8|
0,1,0.46|
0,2,7.1|
0,3,6.8|
0,4,8.9|
0,5,3.2|
0,6,9.3|
0,7,8.2|
1,0,0.87|
1,1,9.5|
1,2,5.4|
1,3,3.9|
1,4,8.4|
1,5,1.7|
1,6,1.2|
1,7,2.7|
2,0,2.9|
2,1,0.36|
2,2,3.1|
2,3,8.3|
2,4,9.7|
2,5,4.6|
2,6,9.6|
2,7,4.3|
3,0,1.8|
3,1,1.5|
3,2,3.6|
3,3,0.7|
3,4,4.1|
3,5,4.6|
3,6,7|
3,7,3.1|
4,0,3.2|
4,1,6.3|
4,2,9.1|
4,3,5.2|
4,4,7.3|
4,5,7.3|
4,6,8.8|
4,7,5.8|
5,0,5.3|
5,1,4.1|
5,2,5.7|
5,3,4.2|
5,4,3.8|
5,5,7.3|
5,6,9.5|
5,7,6.2|
6,0,5.8|
6,1,3.6|
6,2,3|
6,3,5.2|
6,4,3.6|
6,5,5.2|
6,6,4.4|
6,7,9.3|
7,0,1.5|
7,1,1.2|
7,2,4.7|
7,3,7.8|
7,4,3.9|
7,5,3.3|
7,6,9.6|
7,7,5.6|
];
constraint_x14_x10=[
0,0,2.8|
0,1,1.4|
0,2,1.7|
0,3,9.9|
0,4,8.7|
0,5,5.4|
0,6,3.6|
0,7,0.13|
1,0,7.5|
1,1,1.1|
1,2,2.5|
1,3,5.8|
1,4,8.9|
1,5,2.4|
1,6,0.78|
1,7,3.4|
2,0,6|
2,1,4.8|
2,2,0.35|
2,3,4.6|
2,4,9.3|
2,5,0.89|
2,6,3.5|
2,7,6.5|
3,0,2.4|
3,1,0.97|
3,2,7.6|
3,3,8.8|
3,4,6.7|
3,5,9.9|
3,6,1.8|
3,7,6.3|
4,0,9.4|
4,1,5.8|
4,2,1|
4,3,1.2|
4,4,0.67|
4,5,0.06|
4,6,9.9|
4,7,8|
5,0,2.8|
5,1,2|
5,2,0.46|
5,3,3.1|
5,4,1.8|
5,5,2.5|
5,6,6.5|
5,7,1.9|
6,0,5.5|
6,1,6.8|
6,2,5.3|
6,3,9.3|
6,4,5.8|
6,5,8.8|
6,6,1.7|
6,7,7.9|
7,0,9.1|
7,1,3.8|
7,2,9.3|
7,3,5.1|
7,4,2.4|
7,5,0.035|
7,6,6.3|
7,7,1.2|
];
constraint_x15_x11=[
0,0,4|
0,1,8.9|
0,2,9.2|
0,3,6|
0,4,5.6|
0,5,8.9|
0,6,0.92|
0,7,4.9|
1,0,7.1|
1,1,7.2|
1,2,9.1|
1,3,3.4|
1,4,7.4|
1,5,9|
1,6,4.3|
1,7,0.63|
2,0,8.7|
2,1,2.3|
2,2,6.3|
2,3,0.19|
2,4,2|
2,5,5.7|
2,6,2.2|
2,7,8.5|
3,0,5.9|
3,1,8|
3,2,5.7|
3,3,1.9|
3,4,0.22|
3,5,7.8|
3,6,5.6|
3,7,1.5|
4,0,3.5|
4,1,1.9|
4,2,7.6|
4,3,7.8|
4,4,2.7|
4,5,4.5|
4,6,4.8|
4,7,5.1|
5,0,8.5|
5,1,8.5|
5,2,2.3|
5,3,2|
5,4,2.7|
5,5,0.55|
5,6,3|
5,7,6.3|
6,0,5.9|
6,1,2.8|
6,2,8|
6,3,5.1|
6,4,2|
6,5,5.4|
6,6,6.4|
6,7,2.6|
7,0,7.2|
7,1,4.1|
7,2,8.7|
7,3,6.5|
7,4,2|
7,5,2.4|
7,6,5.9|
7,7,4.1|
];
constraint_x16_x12=[
0,0,2.6|
0,1,10|
0,2,9.1|
0,3,0.033|
0,4,0.92|
0,5,1.4|
0,6,5|
0,7,4.3|
1,0,9.8|
1,1,2.3|
1,2,3.3|
1,3,2.6|
1,4,4|
1,5,4|
1,6,2|
1,7,3.1|
2,0,4.5|
2,1,2.1|
2,2,0.43|
2,3,3|
2,4,6.7|
2,5,8.9|
2,6,7|
2,7,8|
3,0,3.8|
3,1,8.9|
3,2,2.6|
3,3,4.3|
3,4,9|
3,5,2.8|
3,6,7.1|
3,7,3.7|
4,0,9.7|
4,1,5.9|
4,2,3.9|
4,3,6.5|
4,4,4.5|
4,5,7.4|
4,6,9.4|
4,7,6.8|
5,0,3.9|
5,1,1.7|
5,2,1.8|
5,3,7.6|
5,4,1|
5,5,0.95|
5,6,7.8|
5,7,5|
6,0,9.1|
6,1,9.7|
6,2,7.2|
6,3,3.4|
6,4,8.7|
6,5,8.6|
6,6,4.8|
6,7,5.7|
7,0,2.9|
7,1,4.8|
7,2,2.6|
7,3,8.5|
7,4,2.4|
7,5,6.8|
7,6,4.4|
7,7,5.6|
];
constraint_x1_y1=[
0,0,3.8|
0,1,7.1|
0,2,0.92|
0,3,2.1|
0,4,0.36|
0,5,6.6|
0,6,0.73|
0,7,4.5|
1,0,3.4|
1,1,4.9|
1,2,8.7|
1,3,9|
1,4,4.6|
1,5,8.9|
1,6,6.6|
1,7,7.1|
2,0,5|
2,1,1.1|
2,2,9.7|
2,3,8.2|
2,4,1.8|
2,5,1.3|
2,6,7.4|
2,7,6.7|
3,0,1.7|
3,1,9.2|
3,2,5.2|
3,3,4.4|
3,4,3.1|
3,5,5.7|
3,6,8.4|
3,7,0.1|
4,0,7.4|
4,1,2|
4,2,8.1|
4,3,2.3|
4,4,5.6|
4,5,4.8|
4,6,2.6|
4,7,8.6|
5,0,5.5|
5,1,1.9|
5,2,9.1|
5,3,2.9|
5,4,9.5|
5,5,5|
5,6,5|
5,7,5.3|
6,0,3.8|
6,1,3.8|
6,2,3.5|
6,3,6.7|
6,4,7.7|
6,5,0.43|
6,6,0.71|
6,7,5.9|
7,0,0.65|
7,1,4.5|
7,2,2.6|
7,3,0.021|
7,4,6.5|
7,5,4.8|
7,6,1.9|
7,7,5.4|
];
constraint_x2_y2=[
0,0,2.7|
0,1,5.5|
0,2,1.2|
0,3,1.7|
0,4,0.083|
0,5,7.7|
0,6,1.6|
0,7,8.8|
1,0,4.4|
1,1,1.4|
1,2,4.7|
1,3,6.4|
1,4,6.7|
1,5,3.2|
1,6,9.1|
1,7,2|
2,0,4.3|
2,1,9.1|
2,2,0.7|
2,3,7.6|
2,4,2|
2,5,0.52|
2,6,1.5|
2,7,7.7|
3,0,7|
3,1,8.1|
3,2,8.6|
3,3,2.3|
3,4,5.9|
3,5,4.7|
3,6,3.5|
3,7,1.7|
4,0,3.1|
4,1,0.61|
4,2,9.1|
4,3,2.4|
4,4,1.1|
4,5,4.4|
4,6,9.7|
4,7,6.8|
5,0,0.27|
5,1,6.9|
5,2,0.32|
5,3,1.5|
5,4,4.1|
5,5,5.6|
5,6,3.2|
5,7,5.3|
6,0,6.6|
6,1,6.7|
6,2,9.1|
6,3,6.8|
6,4,3.4|
6,5,4.6|
6,6,9.7|
6,7,4.1|
7,0,2.6|
7,1,4.8|
7,2,6.4|
7,3,7.4|
7,4,1.4|
7,5,4.8|
7,6,5.6|
7,7,5.9|
];
constraint_x3_y3=[
0,0,0.48|
0,1,7.5|
0,2,9.2|
0,3,5.3|
0,4,1.6|
0,5,10|
0,6,5.9|
0,7,9.6|
1,0,9.4|
1,1,2.1|
1,2,9.7|
1,3,2.1|
1,4,9.3|
1,5,2.4|
1,6,2|
1,7,5.5|
2,0,3.4|
2,1,7.1|
2,2,0.11|
2,3,9.8|
2,4,2.1|
2,5,3.4|
2,6,6.2|
2,7,1.4|
3,0,1.8|
3,1,5.6|
3,2,5.2|
3,3,0.22|
3,4,0.77|
3,5,0.74|
3,6,1.7|
3,7,1.3|
4,0,6.7|
4,1,0.69|
4,2,5.8|
4,3,4.2|
4,4,7.2|
4,5,6.5|
4,6,0.5|
4,7,3.1|
5,0,5.6|
5,1,9.7|
5,2,0.41|
5,3,9.6|
5,4,5.5|
5,5,0.79|
5,6,6.7|
5,7,1.7|
6,0,4.3|
6,1,9|
6,2,1.4|
6,3,2.4|
6,4,1.6|
6,5,9.1|
6,6,6.4|
6,7,2.1|
7,0,4.2|
7,1,7.4|
7,2,9.8|
7,3,6.9|
7,4,2.4|
7,5,9.9|
7,6,0.051|
7,7,5.3|
];
constraint_x4_y4=[
0,0,4.7|
0,1,6.4|
0,2,7.1|
0,3,1.8|
0,4,6.7|
0,5,9.2|
0,6,2.9|
0,7,6.8|
1,0,2.6|
1,1,6.2|
1,2,1.7|
1,3,0.14|
1,4,5|
1,5,1.3|
1,6,3.9|
1,7,10|
2,0,6.4|
2,1,5.5|
2,2,7.4|
2,3,3.9|
2,4,1.8|
2,5,0.53|
2,6,5.1|
2,7,0.67|
3,0,5|
3,1,6.5|
3,2,7.4|
3,3,9.1|
3,4,2.2|
3,5,9.2|
3,6,1.2|
3,7,4.9|
4,0,2.4|
4,1,3|
4,2,9.5|
4,3,8.3|
4,4,9.6|
4,5,0.36|
4,6,5|
4,7,9.7|
5,0,0.36|
5,1,7.7|
5,2,1.8|
5,3,2|
5,4,4.2|
5,5,6.5|
5,6,7.2|
5,7,4.7|
6,0,3.6|
6,1,9.2|
6,2,5.5|
6,3,1.8|
6,4,8|
6,5,6.1|
6,6,5.1|
6,7,2.6|
7,0,10|
7,1,6.5|
7,2,3.4|
7,3,2.9|
7,4,7|
7,5,6.9|
7,6,8.8|
7,7,0.9|
];
constraint_x5_y5=[
0,0,7.3|
0,1,1.7|
0,2,1.2|
0,3,6.6|
0,4,3.5|
0,5,5.1|
0,6,8.5|
0,7,6.2|
1,0,4.7|
1,1,4.1|
1,2,5.5|
1,3,6.7|
1,4,5.8|
1,5,3.2|
1,6,6.5|
1,7,1.9|
2,0,1.3|
2,1,3.7|
2,2,8.8|
2,3,6.4|
2,4,8.3|
2,5,3|
2,6,3.4|
2,7,2|
3,0,2.4|
3,1,9.7|
3,2,9.1|
3,3,2.2|
3,4,6|
3,5,3.9|
3,6,4.8|
3,7,1.4|
4,0,5.8|
4,1,2.2|
4,2,8.2|
4,3,8.9|
4,4,4|
4,5,6|
4,6,4.3|
4,7,9.4|
5,0,0.58|
5,1,5.2|
5,2,8.8|
5,3,3.7|
5,4,8.1|
5,5,2.4|
5,6,8.6|
5,7,3.4|
6,0,8.8|
6,1,7.8|
6,2,1|
6,3,6.2|
6,4,6.9|
6,5,8.2|
6,6,5.5|
6,7,9.5|
7,0,4.1|
7,1,5.7|
7,2,9.3|
7,3,9.5|
7,4,7.1|
7,5,5.5|
7,6,4.1|
7,7,0.24|
];
constraint_x6_y6=[
0,0,7|
0,1,7.1|
0,2,7.4|
0,3,2.2|
0,4,4|
0,5,7.5|
0,6,3.5|
0,7,9.8|
1,0,1.5|
1,1,7.6|
1,2,1|
1,3,9.1|
1,4,9.5|
1,5,1.5|
1,6,3.9|
1,7,3.9|
2,0,0.88|
2,1,3.7|
2,2,0.094|
2,3,9.7|
2,4,7.9|
2,5,5.8|
2,6,6.9|
2,7,0.5|
3,0,0.011|
3,1,4.1|
3,2,7.6|
3,3,0.53|
3,4,5|
3,5,5.2|
3,6,2|
3,7,5.2|
4,0,5.2|
4,1,3.9|
4,2,0.67|
4,3,8.8|
4,4,5.5|
4,5,7.3|
4,6,1.8|
4,7,2.4|
5,0,1.2|
5,1,0.42|
5,2,0.22|
5,3,3|
5,4,9.5|
5,5,8.9|
5,6,1.6|
5,7,5.1|
6,0,3.2|
6,1,0.68|
6,2,1|
6,3,3.3|
6,4,8|
6,5,2.7|
6,6,1.1|
6,7,5.4|
7,0,8.5|
7,1,6.3|
7,2,8.1|
7,3,2.1|
7,4,6.8|
7,5,5.9|
7,6,0.21|
7,7,9.8|
];
constraint_x7_y7=[
0,0,3|
0,1,0.23|
0,2,6.3|
0,3,8.9|
0,4,7.8|
0,5,7.8|
0,6,8.4|
0,7,8.1|
1,0,2.7|
1,1,5.8|
1,2,3.8|
1,3,1.1|
1,4,9.3|
1,5,5.6|
1,6,2.7|
1,7,7.7|
2,0,0.41|
2,1,8.3|
2,2,6|
2,3,6.9|
2,4,3.9|
2,5,2|
2,6,2.7|
2,7,9.5|
3,0,8.6|
3,1,4.8|
3,2,7.9|
3,3,9.9|
3,4,5.3|
3,5,0.26|
3,6,0.91|
3,7,8.9|
4,0,4|
4,1,8.8|
4,2,2|
4,3,0.74|
4,4,5.6|
4,5,5.6|
4,6,2.6|
4,7,7.2|
5,0,9.9|
5,1,3.2|
5,2,3.1|
5,3,8.8|
5,4,2.3|
5,5,1.7|
5,6,4.8|
5,7,2.7|
6,0,3.4|
6,1,0.14|
6,2,4.9|
6,3,0.64|
6,4,3.9|
6,5,5.3|
6,6,9.4|
6,7,8.1|
7,0,4.3|
7,1,4.4|
7,2,5.8|
7,3,4.2|
7,4,0.07|
7,5,3.8|
7,6,4.7|
7,7,5.6|
];
initial_distribution_y1=[0.18,0.1,0.071,0.17,0.12,0.16,0.13,0.071];
initial_distribution_y2=[0.055,0.2,0.18,0.14,0.083,0.063,0.19,0.098];
initial_distribution_y3=[0.021,0.12,0.22,0.24,0.16,0.15,0.075,0.017];
initial_distribution_y4=[0.043,0.27,0.11,0.19,0.065,0.13,0.18,0.0039];
initial_distribution_y5=[0.18,0.23,0.024,0.054,0.0094,0.12,0.18,0.19];
initial_distribution_y6=[0.13,0.14,0.14,0.18,0.13,0.077,0.11,0.096];
initial_distribution_y7=[0.14,0.062,0.085,0.1,0.12,0.094,0.19,0.21];
transition_y1=[
0.22,0.07,0.093,0.034,0.14,0.12,0.29,0.04|
0.054,0.16,0.033,0.2,0.21,0.23,0.047,0.071|
0.054,0.14,0.26,0.014,0.079,0.068,0.19,0.2|
0.1,0.16,0.092,0.0089,0.2,0.096,0.11,0.22|
0.14,0.16,0.21,0.0071,0.076,0.17,0.22,0.01|
0.18,0.23,0.15,0.19,0.036,0.034,0.14,0.048|
0.072,0.13,0.14,0.1,0.19,0.098,0.13,0.14|
0.12,0.23,0.093,0.078,0.15,0.015,0.19,0.14|
];
transition_y2=[
0.07,0.21,0.028,0.2,0.21,0.11,0.085,0.08|
0.2,0.087,0.17,0.016,0.068,0.24,0.0081,0.21|
0.13,0.21,0.21,0.042,0.012,0.12,0.16,0.12|
0.19,0.19,0.085,0.049,0.054,0.13,0.11,0.19|
0.15,0.18,0.15,0.087,0.14,0.15,0.15,0.0045|
0.2,0.15,0.071,0.061,0.13,0.15,0.13,0.11|
0.21,0.013,0.16,0.16,0.02,0.2,0.064,0.18|
0.13,0.23,0.18,0.12,0.019,0.16,0.029,0.14|
];
transition_y3=[
0.11,0.047,0.18,0.18,0.09,0.013,0.23,0.14|
0.22,0.1,0.065,0.12,0.14,0.11,0.085,0.15|
0.19,0.13,0.13,0.15,0.15,0.03,0.029,0.19|
0.075,0.096,0.0048,0.25,0.0048,0.27,0.022,0.27|
0.089,0.063,0.15,0.16,0.14,0.15,0.078,0.17|
0.079,0.12,0.26,0.19,0.14,0.15,0.036,0.026|
0.046,0.24,0.11,0.19,0.22,0.046,0.0069,0.15|
0.18,0.12,0.16,0.22,0.066,0.12,0.085,0.065|
];
transition_y4=[
0.099,0.2,0.18,0.14,0.087,0.06,0.15,0.075|
0.048,0.095,0.12,0.064,0.096,0.2,0.11,0.26|
0.15,0.16,0.049,0.14,0.13,0.12,0.1,0.15|
0.11,0.22,0.041,0.25,0.043,0.11,0.2,0.032|
0.053,0.057,0.2,0.21,0.065,0.039,0.2,0.18|
0.1,0.067,0.052,0.12,0.27,0.036,0.18,0.17|
0.099,0.1,0.21,0.0042,0.2,0.085,0.084,0.21|
0.021,0.19,0.18,0.18,0.12,0.11,0.17,0.042|
];
transition_y5=[
0.12,0.14,0.046,0.2,0.059,0.14,0.062,0.23|
0.049,0.045,0.22,0.12,0.1,0.0064,0.23,0.23|
0.014,0.23,0.16,0.16,0.13,0.15,0.12,0.038|
0.19,0.047,0.13,0.18,0.27,0.059,0.067,0.06|
0.25,0.12,0.13,0.22,0.13,0.049,0.03,0.062|
0.091,0.017,0.15,0.18,0.17,0.1,0.17,0.13|
0.058,0.17,0.091,0.072,0.13,0.25,0.11,0.12|
0.12,0.041,0.012,0.22,0.073,0.19,0.3,0.039|
];
transition_y6=[
0.039,0.083,0.1,0.063,0.23,0.054,0.24,0.19|
0.21,0.025,0.13,0.034,0.089,0.21,0.2,0.093|
0.054,0.018,0.048,0.25,0.23,0.062,0.26,0.077|
0.1,0.058,0.025,0.22,0.13,0.24,0.18,0.036|
0.029,0.17,0.066,0.0091,0.14,0.4,0.17,0.017|
0.0079,0.055,0.12,0.11,0.29,0.081,0.33,0.0044|
0.0084,0.11,0.22,0.14,0.08,0.16,0.079,0.21|
0.21,0.11,0.21,0.17,0.07,0.023,0.093,0.12|
];
transition_y7=[
0.063,0.18,0.092,0.1,0.14,0.2,0.069,0.15|
0.099,0.16,0.073,0.037,0.13,0.22,0.13,0.15|
0.067,0.14,0.2,0.089,0.16,0.19,0.028,0.13|
0.088,0.12,0.099,0.24,0.15,0.06,0.013,0.23|
0.2,0.22,0.053,0.23,0.046,0.028,0.21,0.021|
0.11,0.15,0.16,0.12,0.045,0.18,0.1,0.14|
0.046,0.15,0.11,0.17,0.077,0.18,0.17,0.087|
0.046,0.074,0.097,0.033,0.24,0.099,0.25,0.16|
];
